1 1 2 0
1 1 3 0
1 -1 4 0
1 5 -6 0
1 5 2 0
1 5 -1 0
1 -7 8 0
1 7 -9 0
1 7 -10 0
1 7 -11 0
1 -7 -12 0
1 -7 13 0
1 -7 3 0
1 -7 -4 0
1 -10 -8 0
1 -10 9 0
1 -10 14 0
1 -10 6 0
1 10 -2 0
1 10 11 0
1 -10 -7 0
1 -10 -3 0
1 2 -15 0
1 -2 -16 0
1 -2 5 0
1 2 -17 0
1 -2 -18 0
1 2 7 0
1 -2 -1 0
1 2 -4 0
1 4 19 0
1 4 -20 0
1 4 -15 0
1 4 16 0
1 4 5 0
1 -4 -2 0
1 -4 -18 0
1 -4 21 0
1 -4 7 0
1 -4 -1 0
1 6 -20 0
1 6 -22 0
1 -6 23 0
1 -6 24 0
1 -6 -7 0
1 -3 -20 0
1 3 -22 0
1 -3 25 0
1 -3 10 0
1 -3 5 0
1 -3 6 0
1 -3 26 0
1 3 -7 0
1 3 27 0
1 21 8 0
1 -21 9 0
1 -21 -11 0
1 21 12 0
1 -21 -26 0
1 -21 4 0
1 -16 -8 0
1 16 25 0
1 16 -2 0
1 -16 -11 0
1 -16 -12 0
1 16 21 0
1 -16 4 0
1 -18 8 0
1 -18 -9 0
1 18 -15 0
1 18 28 0
1 18 -29 0
1 -18 -11 0
1 -18 12 0
1 -18 -30 0
1 18 -24 0
1 15 8 0
1 15 9 0
1 -15 28 0
1 15 22 0
1 -15 2 0
1 -15 11 0
1 15 18 0
1 15 30 0
1 -15 -31 0
1 15 -4 0
1 12 32 0
1 12 16 0
1 12 -10 0
1 12 -33 0
1 -12 -34 0
1 12 -7 0
1 12 -35 0
1 9 -32 0
1 9 36 0
1 9 16 0
1 9 -10 0
1 -9 37 0
1 -9 33 0
1 -9 38 0
1 9 -12 0
1 9 -18 0
1 -9 -21 0
1 9 7 0
1 -11 8 0
1 11 -39 0
1 -11 -15 0
1 11 -16 0
1 -11 -10 0
1 -11 37 0
1 11 40 0
1 -11 23 0
1 -11 18 0
1 -11 -7 0
1 -11 35 0
1 8 -20 0
1 8 -15 0
1 8 37 0
1 8 11 0
1 8 -23 0
1 8 18 0
1 8 -21 0
1 38 -32 0
1 38 9 0
1 -38 29 0
1 38 -12 0
1 32 9 0
1 32 20 0
1 32 28 0
1 32 -38 0
1 -32 30 0
1 -32 -31 0
1 33 9 0
1 33 -28 0
1 33 29 0
1 -33 -40 0
1 33 -12 0
1 33 30 0
1 33 -31 0
1 -41 39 0
1 41 9 0
1 -41 -29 0
1 -41 -12 0
1 -41 31 0
1 -31 -41 0
1 -31 32 0
1 31 15 0
1 31 -29 0
1 -31 -42 0
1 31 -38 0
1 -31 43 0
1 29 -41 0
1 29 32 0
1 -29 15 0
1 -29 -33 0
1 -29 -38 0
1 29 -18 0
1 -29 -31 0
1 -30 28 0
1 30 44 0
1 30 33 0
1 -30 38 0
1 -30 18 0
1 30 45 0
1 30 35 0
1 -28 41 0
1 28 -32 0
1 -28 -46 0
1 -28 -42 0
1 28 44 0
1 28 33 0
1 -28 38 0
1 -28 18 0
1 28 -30 0
1 28 -43 0
1 -28 -45 0
1 28 35 0
1 47 48 0
1 -47 49 0
1 -47 -1 0
1 48 50 0
1 -48 51 0
1 -48 49 0
1 48 -47 0
1 13 50 0
1 -13 -52 0
1 -13 53 0
1 -13 -14 0
1 -13 51 0
1 -13 -54 0
1 -13 -55 0
1 13 7 0
1 -14 -50 0
1 -14 53 0
1 -14 10 0
1 -14 -51 0
1 14 -49 0
1 14 54 0
1 -14 -13 0
1 56 22 0
1 -56 -25 0
1 -56 -14 0
1 -56 -49 0
1 -56 13 0
1 -56 47 0
1 -49 -56 0
1 -49 -25 0
1 49 48 0
1 -49 -26 0
1 -49 13 0
1 50 57 0
1 50 -14 0
1 50 -48 0
1 -50 -13 0
1 -51 -50 0
1 -51 -14 0
1 51 48 0
1 51 13 0
1 51 47 0
1 -26 -56 0
1 -26 -52 0
1 26 -53 0
1 -26 -6 0
1 -26 -49 0
1 26 -21 0
1 -26 -3 0
1 -25 -56 0
1 25 -52 0
1 25 16 0
1 -25 -53 0
1 25 -54 0
1 25 -55 0
1 -25 3 0
1 24 22 0
1 24 52 0
1 -24 -58 0
1 24 -59 0
1 -24 6 0
1 -24 -49 0
1 -24 -60 0
1 24 -61 0
1 22 52 0
1 22 53 0
1 22 58 0
1 -22 54 0
1 22 -24 0
1 -22 61 0
1 -22 -3 0
1 53 62 0
1 53 -55 0
1 53 39 0
1 -53 20 0
1 53 22 0
1 53 25 0
1 -53 63 0
1 53 14 0
1 -53 -64 0
1 -53 -40 0
1 53 23 0
1 -55 62 0
1 -55 -39 0
1 -55 20 0
1 -55 -25 0
1 -55 -53 0
1 55 14 0
1 55 -64 0
1 -55 40 0
1 55 23 0
1 -55 -24 0
1 -55 -65 0
1 55 -26 0
1 55 -13 0
1 -52 -62 0
1 -52 -22 0
1 -52 -66 0
1 -52 -25 0
1 -52 -64 0
1 52 24 0
1 -52 -26 0
1 -54 -62 0
1 -54 22 0
1 -54 -52 0
1 -54 -25 0
1 -54 -64 0
1 54 24 0
1 54 67 0
1 54 13 0
1 23 8 0
1 23 -53 0
1 23 2 0
1 -23 -55 0
1 23 -61 0
1 -23 -4 0
1 20 53 0
1 20 58 0
1 -20 -59 0
1 20 6 0
1 20 2 0
1 20 -11 0
1 20 23 0
1 20 61 0
1 -40 -19 0
1 40 -8 0
1 40 -39 0
1 -40 -53 0
1 -40 58 0
1 40 59 0
1 -40 68 0
1 40 17 0
1 -40 11 0
1 40 33 0
1 -40 -60 0
1 -40 61 0
1 -39 -41 0
1 39 -53 0
1 -39 -59 0
1 -39 68 0
1 39 -17 0
1 39 -11 0
1 39 -40 0
1 39 55 0
1 -39 -60 0
1 39 -61 0
1 59 39 0
1 59 -20 0
1 59 22 0
1 -59 69 0
1 -59 44 0
1 59 -37 0
1 -59 40 0
1 -59 -24 0
1 59 -61 0
1 59 70 0
1 -59 45 0
1 59 -35 0
1 -61 -39 0
1 -61 20 0
1 61 59 0
1 -61 69 0
1 -61 -44 0
1 61 -37 0
1 61 -40 0
1 -61 23 0
1 -61 70 0
1 -61 45 0
1 -58 -39 0
1 58 -71 0
1 -58 69 0
1 58 -64 0
1 58 -23 0
1 58 24 0
1 58 60 0
1 -58 72 0
1 -60 62 0
1 -60 -58 0
1 -60 69 0
1 -60 73 0
1 -60 -40 0
1 -60 23 0
1 -60 24 0
1 -60 -74 0
1 -60 -70 0
1 60 -72 0
1 -37 -19 0
1 37 8 0
1 37 -9 0
1 37 28 0
1 -37 59 0
1 -37 68 0
1 -37 -64 0
1 -37 -11 0
1 37 17 0
1 37 12 0
1 -37 -30 0
1 37 27 0
1 37 35 0
1 35 -62 0
1 -35 -8 0
1 35 9 0
1 35 28 0
1 -35 59 0
1 35 -11 0
1 -35 -12 0
1 -35 -30 0
1 -35 -61 0
1 35 27 0
1 -44 19 0
1 -44 -75 0
1 44 36 0
1 44 -28 0
1 -44 59 0
1 -44 68 0
1 44 17 0
1 -44 -76 0
1 -44 -34 0
1 44 -61 0
1 -45 19 0
1 -45 -28 0
1 45 59 0
1 45 44 0
1 -45 -68 0
1 45 76 0
1 45 30 0
1 -45 72 0
1 -17 19 0
1 17 39 0
1 17 -77 0
1 17 78 0
1 -17 -42 0
1 -17 -44 0
1 -17 -37 0
1 17 -2 0
1 -17 -40 0
1 -17 79 0
1 -17 -80 0
1 17 -45 0
1 -19 77 0
1 19 -78 0
1 19 42 0
1 -19 44 0
1 19 37 0
1 19 -17 0
1 19 -4 0
1 19 43 0
1 -19 -45 0
1 -19 35 0
1 -68 39 0
1 -68 -77 0
1 68 -81 0
1 68 69 0
1 -68 -6 0
1 68 37 0
1 68 40 0
1 68 79 0
1 68 82 0
1 68 27 0
1 -68 35 0
1 27 -39 0
1 27 77 0
1 -27 -44 0
1 -27 68 0
1 -27 -40 0
1 27 3 0
1 -27 82 0
1 -27 -70 0
1 42 -19 0
1 -42 75 0
1 -42 28 0
1 -42 36 0
1 -42 -29 0
1 -42 69 0
1 42 -17 0
1 42 76 0
1 42 34 0
1 -42 -31 0
1 42 -43 0
1 -43 -19 0
1 -43 -75 0
1 -43 36 0
1 -43 28 0
1 43 29 0
1 -43 42 0
1 43 17 0
1 43 -76 0
1 43 -34 0
1 -43 30 0
1 -43 31 0
1 43 -70 0
1 -78 -19 0
1 -78 -75 0
1 78 36 0
1 78 46 0
1 -78 83 0
1 -78 -81 0
1 78 -17 0
1 -78 -76 0
1 -78 -84 0
1 -78 85 0
1 -80 36 0
1 -80 -46 0
1 -80 83 0
1 80 78 0
1 80 34 0
1 80 -84 0
1 80 -85 0
1 80 82 0
1 34 36 0
1 -34 -86 0
1 -34 87 0
1 34 -78 0
1 34 42 0
1 34 44 0
1 -34 88 0
1 34 80 0
1 34 43 0
1 -34 45 0
1 -36 -9 0
1 36 -86 0
1 -36 44 0
1 -36 -88 0
1 36 -34 0
1 -36 43 0
1 36 45 0
1 -76 75 0
1 -76 77 0
1 -76 78 0
1 -76 -42 0
1 76 -44 0
1 76 -11 0
1 -76 79 0
1 -75 -8 0
1 -75 -89 0
1 -75 -77 0
1 -75 -78 0
1 -75 -42 0
1 -75 -44 0
1 75 -76 0
1 75 -90 0
1 -75 -79 0
1 -75 -80 0
1 -75 -45 0
1 87 -36 0
1 -87 -46 0
1 -87 83 0
1 87 -77 0
1 87 -85 0
1 -91 36 0
1 91 46 0
1 -91 -87 0
1 91 84 0
1 -91 85 0
1 -86 36 0
1 86 -89 0
1 86 83 0
1 -86 -88 0
1 86 -84 0
1 -86 -85 0
1 -88 -36 0
1 -88 86 0
1 88 -46 0
1 88 -90 0
1 -88 -85 0
1 85 86 0
1 -85 -83 0
1 -85 78 0
1 -85 -91 0
1 85 31 0
1 -85 80 0
1 -83 -86 0
1 83 29 0
1 -83 87 0
1 -83 78 0
1 83 91 0
1 83 80 0
1 83 -85 0
1 84 -87 0
1 -84 88 0
1 -84 30 0
1 84 -80 0
1 46 28 0
1 -46 -78 0
1 -46 84 0
1 -46 -80 0
1 64 57 0
1 -64 92 0
1 -64 -53 0
1 64 58 0
1 -64 37 0
1 -64 -93 0
1 64 94 0
1 -64 54 0
1 -64 -55 0
1 64 60 0
1 62 -57 0
1 62 92 0
1 -62 -52 0
1 -62 -53 0
1 -62 58 0
1 62 64 0
1 62 -93 0
1 -62 94 0
1 -62 -55 0
1 -73 63 0
1 -73 -58 0
1 -73 67 0
1 73 65 0
1 -73 -60 0
1 73 -72 0
1 -72 57 0
1 -72 -92 0
1 -72 63 0
1 -72 -73 0
1 72 -94 0
1 72 -67 0
1 -72 -65 0
1 72 45 0
1 -92 62 0
1 -92 -56 0
1 92 -69 0
1 92 -73 0
1 92 -64 0
1 -92 -94 0
1 92 72 0
1 -94 92 0
1 94 -69 0
1 -94 -73 0
1 94 -64 0
1 -94 -49 0
1 -94 82 0
1 94 70 0
1 57 62 0
1 -57 73 0
1 57 -72 0
1 -93 -62 0
1 93 57 0
1 93 -64 0
1 -93 -51 0
1 -69 -92 0
1 -69 63 0
1 -69 42 0
1 69 68 0
1 69 -94 0
1 -69 67 0
1 69 -60 0
1 -69 -61 0
1 70 -92 0
1 -70 -66 0
1 70 63 0
1 -70 -58 0
1 70 -69 0
1 -70 94 0
1 -70 -67 0
1 -70 60 0
1 -70 43 0
1 -70 -27 0
1 81 92 0
1 81 74 0
1 81 -63 0
1 -81 -78 0
1 -81 -71 0
1 -81 68 0
1 -81 65 0
1 -81 82 0
1 81 95 0
1 -81 27 0
1 82 92 0
1 -82 63 0
1 82 -81 0
1 -82 96 0
1 -82 94 0
1 82 -67 0
1 -82 65 0
1 -82 80 0
1 -82 -74 0
1 -82 95 0
1 -82 -27 0
1 63 -65 0
1 -63 89 0
1 63 -77 0
1 63 -81 0
1 63 -69 0
1 63 73 0
1 -63 79 0
1 63 -82 0
1 -63 -72 0
1 -65 89 0
1 65 63 0
1 -65 -81 0
1 65 -69 0
1 65 90 0
1 65 55 0
1 -65 -79 0
1 -65 -82 0
1 65 70 0
1 -65 72 0
1 66 52 0
1 66 81 0
1 66 -69 0
1 66 73 0
1 66 72 0
1 -67 -66 0
1 67 81 0
1 67 54 0
1 67 -82 0
1 67 70 0
1 67 -72 0
1 77 19 0
1 -77 63 0
1 -77 -96 0
1 77 -68 0
1 -77 -17 0
1 77 -76 0
1 -77 79 0
1 -77 -74 0
1 77 95 0
1 -79 77 0
1 79 63 0
1 -79 71 0
1 -79 96 0
1 79 68 0
1 -79 17 0
1 79 76 0
1 79 -91 0
1 -79 -65 0
1 79 -95 0
1 79 27 0
1 -89 75 0
1 89 86 0
1 -89 -71 0
1 89 -96 0
1 -89 -76 0
1 89 -90 0
1 89 74 0
1 89 -95 0
1 90 -75 0
1 -90 71 0
1 -90 96 0
1 90 -76 0
1 -90 88 0
1 90 -65 0
1 -90 95 0
1 96 89 0
1 96 -77 0
1 96 -81 0
1 96 -59 0
1 96 -90 0
1 -96 -79 0
1 96 82 0
1 95 -89 0
1 -95 -77 0
1 95 90 0
1 95 79 0
1 -95 -82 0
1 95 61 0
1 -71 89 0
1 71 -74 0
1 -71 77 0
1 71 58 0
1 -71 -81 0
1 -71 79 0
1 71 82 0
1 -74 -89 0
1 -74 77 0
1 74 -81 0
1 -74 -71 0
1 74 90 0
1 74 79 0
1 -74 -60 0
1 74 82 0
